%chk=FMN.chk
%nprocshared=20
%mem=75GB
#p b3lyp/6-31g(d,p) pop=(nbo,savenbo) geom=check guess=read

FMN of YtvA (2PR5)

-2 1

