%chk=FMN.chk
#p opt=(tight) b3lyp/6-31g(d,p) pop=mk iop(6/33=2,6/41=10,6/42=17)

FMN of YtvA (2PR5)

-2 1

