%chk=FMN.chk
%nprocshared=16
%mem=70GB
#p b3lyp/6-31g(d,p) pop=mk geom=check guess=read iop(6/42=6,6/50=1)

FMN of YtvA (2PR5)

-2 3

FMN.esp

