%chk=FMN.chk
%mem=75GB
%nprocshared=20
#p b3lyp/6-31g(d,p) pop=(mk,saveesp) geom=check guess=read

FMN of YtvA (2PR5)

-2 1

