%chk=FMN.chk
#p b3lyp/6-31g(d,p) pop=mk iop(6/50=1) geom=check guess=read

FMN of YtvA (2PR5)

-2 1

FMN.esp
