%chk=FMN.chk
%nprocshared=16
%mem=70GB
#p opt=tight b3lyp/6-31g(d,p) pop=(mk,saveesp) geom=check guess=read

FMN of YtvA (2PR5)

-2 3

