%chk=FMN.chk
%mem=70GB
%nprocshared=20
#p HF/6-31g(d) pop=(mk,saveesp) geom=check guess=read  scrf=(solvent=water,read)

FMN of YtvA (2PR5)

-2 1

